 vasp.6.2.0 18Jan21 (build May 11 2021 12:08:04) complex

 executed on             LinuxIFC date 2024.03.21  07:32:34

 INCAR:
   SYSTEM = DFT routine
   ISTART = 0
   ICHARG = 2
   LORBIT = 10
   NCORE = 2 up to number-of-cores-per-node
   NPAR = 5
   KPAR = 1
   LELF = F
   LWAVE = F
   LCHARG = F
   ENCUT = 400
   EDIFF = 1E-4
   NELM = 100
   IALGO = 38
   LREAL = F
   PREC = acc
   EDIFFG = 0
   NSW = 3
   ISIF = 3
   IBRION = 1
   POTIM = 0.10
   ISMEAR = 0
   SIGMA = 0.01

 POTCAR:    PAW_PBE B 06Sep2000
 POTCAR:    PAW_PBE Ca_sv 06Sep2000
 POTCAR:    PAW_PBE Fe 06Sep2000
 POTCAR:    PAW_PBE P 06Sep2000
 POTCAR:    PAW_PBE B 06Sep2000
   VRHFIN =B: s2p1

   TITEL  = PAW_PBE B 06Sep2000
   POMASS =   10.811; ZVAL   =    3.000    mass and valenz
   ENMAX  =  318.614; ENMIN  =  238.960 eV

 POTCAR:    PAW_PBE Ca_sv 06Sep2000
   VRHFIN =Ca: 3s3p4s

   TITEL  = PAW_PBE Ca_sv 06Sep2000
   POMASS =   40.078; ZVAL   =   10.000    mass and valenz
   ENMAX  =  266.622; ENMIN  =  199.967 eV

 POTCAR:    PAW_PBE Fe 06Sep2000
   VRHFIN =Fe:  d7 s1

[...]

 POTCAR:    PAW_PBE P 06Sep2000
   VRHFIN =P : s2p3

   TITEL  = PAW_PBE P 06Sep2000
   POMASS =   30.974; ZVAL   =    5.000    mass and valenz
   ENMAX  =  255.040; ENMIN  =  191.280 eV

  PAW_PBE B 06Sep2000                   :
  PAW_PBE Ca_sv 06Sep2000               :
  PAW_PBE Fe 06Sep2000                  :
  PAW_PBE P 06Sep2000                   :

 POSCAR: Ca2 Fe1 B1 P4
  positions in direct lattice
 exchange correlation table for  LEXCH =        8
   RHO(1)=    0.500       N(1)  =     2000
   RHO(2)=  100.500       N(2)  =     4000

 ion  position               nearest neighbor table
   1  0.500  0.500  0.500-   4 2.10   4 2.10
   2  0.502  0.500  0.000-   6 2.89   8 2.89   7 2.89   5 2.89   5 2.90   6 2.90   7 2.90   8 2.90

   3  0.498  0.000  0.500-   6 2.89   8 2.89   7 2.89   5 2.89   5 2.90   6 2.90   7 2.90   8 2.90

   4  0.000  0.500  0.500-   1 2.10   1 2.10   7 2.29   5 2.29   8 2.29   6 2.29
   5  0.000  0.208  0.792-   4 2.29   6 2.32   8 2.32   3 2.89   2 2.89   2 2.90   3 2.90
   6  0.000  0.792  0.792-   4 2.29   5 2.32   7 2.32   3 2.89   2 2.89   2 2.90   3 2.90
   7  0.000  0.792  0.208-   4 2.29   6 2.32   8 2.32   3 2.89   2 2.89   2 2.90   3 2.90
   8  0.000  0.208  0.208-   4 2.29   5 2.32   7 2.32   3 2.89   2 2.89   2 2.90   3 2.90

  LATTYP: Found a simple tetragonal cell.
 ALAT       =     5.5608900000
 C/A-ratio  =     0.7552217361

  Lattice vectors:

 A1 = (   5.5608900000,   0.0000000000,   0.0000000000)
 A2 = (   0.0000000000,   5.5608900000,   0.0000000000)
 A3 = (   0.0000000000,   0.0000000000,   4.1997050000)

Analysis of symmetry for initial positions (statically):
 Subroutine PRICEL returns:
 Original cell was already a primitive cell.

 Routine SETGRP: Setting up the symmetry group for a
 simple tetragonal supercell.

 Subroutine GETGRP returns: Found  8 space group operations
 (whereof  8 operations were pure point group operations)
 out of a pool of 16 trial point group operations.

The static configuration has the point symmetry D_2d.

Analysis of symmetry for dynamics (positions and initial velocities):
 Subroutine PRICEL returns:
 Original cell was already a primitive cell.

 Routine SETGRP: Setting up the symmetry group for a
 simple tetragonal supercell.

 Subroutine GETGRP returns: Found  8 space group operations
 (whereof  8 operations were pure point group operations)
 out of a pool of 16 trial point group operations.

The dynamic configuration has the point symmetry D_2d.

 Subroutine INISYM returns: Found  8 space group operations
 (whereof  8 operations are pure point group operations),
 and found     1 'primitive' translations

                                     Primitive cell

  volume of cell :     129.8696

  direct lattice vectors                    reciprocal lattice vectors
     0.000000000  0.000000000  4.199705000    -0.000000000 -0.000000000  0.238111963
     5.560890000  0.000000000  0.000000000     0.179827330 -0.000000000  0.000000000
     0.000000000  5.560890000  0.000000000     0.000000000  0.179827330  0.000000000

  length of vectors
     4.199705000  5.560890000  5.560890000     0.238111963  0.179827330  0.179827330

  position of ions in fractional coordinates (direct lattice)
     0.500000000  0.500000000  0.500000000
     0.502180000  0.500000000  0.000000000
     0.497820000  0.000000000  0.500000000
     1.000000000  0.500000000  0.500000000
     1.000000000  0.208275000  0.791725000
     1.000000000  0.791725000  0.791725000
     1.000000000  0.791725000  0.208275000
     1.000000000  0.208275000  0.208275000

  ion indices of the primitive-cell ions
   primitive index   ion index
                 1           1
                 2           2
                 3           3
                 4           4
                 5           5
                 6           6
                 7           7
                 8           8

 KPOINTS: Automatic mesh

Automatic generation of k-mesh.
 Grid dimensions derived from RKLEN:
 generate k-points for:    7    5    5

 Generating k-lattice:

  Cartesian coordinates                     Fractional coordinates (reciprocal lattice)
    -0.000000000 -0.000000000  0.034015995     0.142857143 -0.000000000 -0.000000000
     0.035965466 -0.000000000  0.000000000     0.000000000  0.200000000  0.000000000
     0.000000000  0.035965466  0.000000000     0.000000000  0.000000000  0.200000000

  Length of vectors
     0.034015995  0.035965466  0.035965466

  Shift w.r.t. Gamma in fractional coordinates (k-lattice)
     0.000000000  0.000000000  0.000000000

 Subroutine IBZKPT returns following result:

 Found     24 irreducible k-points:

 Following reciprocal coordinates:
            Coordinates               Weight
  0.000000  0.000000  0.000000      1.000000
  0.142857 -0.000000 -0.000000      2.000000
  0.285714  0.000000  0.000000      2.000000
  0.428571  0.000000  0.000000      2.000000
  0.000000  0.200000 -0.000000      4.000000
  0.142857  0.200000 -0.000000      8.000000
  0.285714  0.200000 -0.000000      8.000000
  0.428571  0.200000 -0.000000      8.000000
  0.000000  0.400000 -0.000000      4.000000
  0.142857  0.400000 -0.000000      8.000000
  0.285714  0.400000 -0.000000      8.000000
  0.428571  0.400000 -0.000000      8.000000
  0.000000  0.200000  0.200000      4.000000
  0.142857  0.200000  0.200000      8.000000
  0.285714  0.200000  0.200000      8.000000
  0.428571  0.200000  0.200000      8.000000
  0.000000  0.400000  0.200000      8.000000
  0.142857  0.400000  0.200000     16.000000
  0.285714  0.400000  0.200000     16.000000
  0.428571  0.400000  0.200000     16.000000
  0.000000  0.400000  0.400000      4.000000
  0.142857  0.400000  0.400000      8.000000
  0.285714  0.400000  0.400000      8.000000
  0.428571  0.400000  0.400000      8.000000

 Following cartesian coordinates:
            Coordinates               Weight
  0.000000  0.000000  0.000000      1.000000
 -0.000000 -0.000000  0.034016      2.000000
 -0.000000 -0.000000  0.068032      2.000000
 -0.000000 -0.000000  0.102048      2.000000
  0.035965 -0.000000  0.000000      4.000000
  0.035965 -0.000000  0.034016      8.000000
  0.035965 -0.000000  0.068032      8.000000
  0.035965 -0.000000  0.102048      8.000000
  0.071931 -0.000000  0.000000      4.000000
  0.071931 -0.000000  0.034016      8.000000
  0.071931 -0.000000  0.068032      8.000000
  0.071931 -0.000000  0.102048      8.000000
  0.035965  0.035965  0.000000      4.000000
  0.035965  0.035965  0.034016      8.000000
  0.035965  0.035965  0.068032      8.000000
  0.035965  0.035965  0.102048      8.000000
  0.071931  0.035965  0.000000      8.000000
  0.071931  0.035965  0.034016     16.000000
  0.071931  0.035965  0.068032     16.000000
  0.071931  0.035965  0.102048     16.000000
  0.071931  0.071931  0.000000      4.000000
  0.071931  0.071931  0.034016      8.000000
  0.071931  0.071931  0.068032      8.000000
  0.071931  0.071931  0.102048      8.000000

 SYSTEM =  DFT routine
 POSCAR =  Ca2 Fe1 B1 P4

 Startparameter for this run:
   NWRITE =      2    write-flag & timer
   PREC   = acc       normal or accurate (medium, high low for compatibility)
   ISTART =      0    job   : 0-new  1-cont  2-samecut
   ICHARG =      2    charge: 1-file 2-atom 10-const
   ISPIN  =      1    spin polarized calculation?
   LNONCOLLINEAR =      F non collinear calculations
   LSORBIT =      F    spin-orbit coupling
   INIWAV =      1    electr: 0-lowe 1-rand  2-diag
   LASPH  =      F    aspherical Exc in radial PAW
   METAGGA=      F    non-selfconsistent MetaGGA calc.

 Electronic Relaxation 1
   ENCUT  =  400.0 eV  29.40 Ry    5.42 a.u.   6.85  9.07  9.07*2*pi/ulx,y,z
   ENINI  =  400.0     initial cutoff
   ENAUG  =  535.5 eV  augmentation charge cutoff
   NELM   =    100;   NELMIN=  2; NELMDL= -5     # of ELM steps
   EDIFF  = 0.1E-03   stopping-criterion for ELM
   LREAL  =      F    real-space projection
   NLSPLINE    = F    spline interpolate recip. space projectors
   LCOMPAT=      F    compatible to vasp.4.4
   GGA_COMPAT  = T    GGA compatible to vasp.4.4-vasp.4.6
   LMAXPAW     = -100 max onsite density
   LMAXMIX     =    2 max onsite mixed and CHGCAR
   VOSKOWN=      0    Vosko Wilk Nusair interpolation
   ROPT   =    0.00000   0.00000   0.00000   0.00000
 Ionic relaxation
   EDIFFG = 0.0E+00   stopping-criterion for IOM
   NSW    =      3    number of steps for IOM
   NBLOCK =      1;   KBLOCK =      3    inner block; outer block
   IBRION =      1    ionic relax: 0-MD 1-quasi-New 2-CG
   NFREE  =      0    steps in history (QN), initial steepest desc. (CG)
   ISIF   =      3    stress and relaxation
   IWAVPR =     11    prediction:  0-non 1-charg 2-wave 3-comb
   ISYM   =      2    0-nonsym 1-usesym 2-fastsym
   LCORR  =      T    Harris-Foulkes like correction to forces

   POTIM  = 0.1000    time-step for ionic-motion
   TEIN   =    0.0    initial temperature
   TEBEG  =    0.0;   TEEND  =   0.0 temperature during run
   SMASS  =  -3.00    Nose mass-parameter (am)
   estimated Nose-frequenzy (Omega)   =  0.10E-29 period in steps = 0.63E+47 mass=  -0.403E-27a.u.
   SCALEE = 1.0000    scale energy and forces
   NPACO  =    256;   APACO  = 16.0  distance and # of slots for P.C.
   PSTRESS=    0.0 pullay stress

  Mass of Ions in am
   POMASS =  10.81 40.08 55.85 30.97
  Ionic Valenz
   ZVAL   =   3.00 10.00  8.00  5.00
  Atomic Wigner-Seitz radii
  virtual crystal weights
   VCA    =   1.00  1.00  1.00  1.00
   NELECT =      51.0000    total number of electrons
   NUPDOWN=      -1.0000    fix difference up-down

 DOS related values:
   EMIN   =  10.00;   EMAX   =-10.00  energy-range for DOS
   EFERMI =   0.00
   ISMEAR =     0;   SIGMA  =   0.01  broadening in eV -4-tet -1-fermi 0-gaus

 Electronic relaxation 2 (details)
   IALGO  =     38    algorithm
   LDIAG  =      T    sub-space diagonalisation (order eigenvalues)
   LSUBROT=      F    optimize rotation matrix (better conditioning)
   TURBO    =      0    0=normal 1=particle mesh
   IRESTART =      0    0=no restart 2=restart with 2 vectors
   NREBOOT  =      0    no. of reboots
[...]
   IXMIN=   -7   IYMIN=   -9   IZMIN=   -9

 parallel 3D FFT for wavefunctions:
    minimum data exchange during FFTs selected (reduces bandwidth)
 parallel 3D FFT for charge:
    minimum data exchange during FFTs selected (reduces bandwidth)

 Broyden mixing: mesh for mixing (old mesh)
   NGX = 13   NGY = 19   NGZ = 19
  (NGX  = 56   NGY  = 72   NGZ  = 72)
  gives a total of   4693 points

 initial charge density was supplied:
 charge density of overlapping atoms calculated
 number of electron      51.0000000 magnetization
 keeping initial charge density in first step

 Maximum index for augmentation-charges         1343 (set IRDMAX)

 First call to EWALD:  gamma=   0.350
 Maximum number of real-space cells 3x 3x 3
 Maximum number of reciprocal cells 2x 3x 3

--------------------------------------- Iteration      1(   1)  ---------------------------------------

 eigenvalue-minimisations  :  1440
 total energy-change (2. order) : 0.3596256E+03  (-0.2050334E+04)
 number of electron      51.0000000 magnetization
 augmentation part       51.0000000 magnetization

 Free energy of the ion-electron system (eV)
  alpha Z        PSCENC =       174.13590793
  Ewald energy   TEWEN  =     -2797.39934593
  -Hartree energ DENC   =      -698.29257646
  -exchange      EXHF   =         0.00000000
  -V(xc)+E(xc)   XCENC  =       110.87318655
  PAW double counting   =      2649.58286176    -2603.74504241
  entropy T*S    EENTRO =        -0.00025113
  eigenvalues    EBANDS =       142.66299968
  atomic energy  EATOM  =      3381.80785421
  Solvation  Ediel_sol  =         0.00000000
  free energy    TOTEN  =       359.62559420 eV

  energy without entropy =      359.62584533  energy(sigma->0) =      359.62571976

[...]

 eigenvalue-minimisations  :  1470
 total energy-change (2. order) :-0.3680315E+03  (-0.3646406E+03)
 number of electron      51.0000000 magnetization
 augmentation part       51.0000000 magnetization

[...]

 Broyden mixing:
  rms(total) = 0.29556E+01    rms(broyden)= 0.29555E+01
  rms(prec ) = 0.55868E+01
  weight for this iteration     100.00

[...]

 eigenvalues of (default mixing * dielectric matrix)
  average eigenvalue GAMMA=   0.0928
  0.0928

[...]

 average (electrostatic) potential at core
  the test charge radii are     0.7672  1.1137  1.0103  0.9587
  (the norm of the test charge is              1.0000)
       1 -27.0355       2 -42.5446       3 -42.5446       4 -42.9203       5 -82.6418
       6 -82.6418       7 -82.6418       8 -82.6418

 E-fermi :   6.6994     XC(G=0): -10.6502     alpha+bet :-13.4562

 Fermi energy:         6.6993706352

 k-point     1 :       0.0000    0.0000    0.0000
  band No.  band energies     occupation
      1     -33.7559      2.00000
      2     -33.7444      2.00000
      3     -14.9147      2.00000
      4     -14.9104      2.00000
      5     -14.9104      2.00000
      6     -14.8841      2.00000
      7     -14.8057      2.00000
      8     -14.8057      2.00000
      9      -7.5962      2.00000
     10      -4.0501      2.00000
     11      -4.0501      2.00000
     12      -1.8371      2.00000
     13      -1.2894      2.00000
     14      -0.4149      2.00000
     15       1.1693      2.00000
     16       2.2283      2.00000
     17       2.2283      2.00000
     18       2.6589      2.00000
     19       3.6186      2.00000
     20       3.6186      2.00000
     21       5.3121      2.00000
     22       5.4847      2.00000
     23       5.9350      2.00000
     24       5.9350      2.00000
     25       6.4096      2.00000
     26       6.4152      2.00000
     27       7.6153      0.00000
     28       7.6154      0.00000
     29       7.6388      0.00000
     30       7.7015      0.00000

[...]

 soft charge-density along one line, spin component           1
         0         1         2         3         4         5         6         7         8         9
 total charge-density along one line

------------------------ aborting loop because EDIFF is reached ----------------------------------------

 total charge

# of ion       s       p       d       tot
    1        0.796   0.807   0.000   1.603
    2        2.036   5.855   0.365   8.255
    3        2.036   5.855   0.365   8.255
    4        0.422   0.605   6.505   7.533
    5        1.064   1.403   0.000   2.467
    6        1.064   1.403   0.000   2.467
    7        1.064   1.403   0.000   2.467
    8        1.064   1.403   0.000   2.467
tot          9.547  18.732   7.234  35.514

  FORCE on cell =-STRESS in cart. coord.  units (eV):
  Direction    XX          YY          ZZ          XY          YZ          ZX
  Alpha Z   174.13591   174.13591   174.13591
  Ewald    -934.54938  -934.54938  -928.30523    -0.00000     0.00000     0.00000
  Hartree   205.09565   205.09565   266.85013    -0.00000    -0.00000    -0.00000
  E(xc)    -204.75078  -204.75078  -205.52725    -0.00000     0.00000     0.00000
  Local      50.17268    50.17268   -46.72422    -0.00000    -0.00000    -0.00000
  n-local   113.25200   116.92712   119.79540     0.88086     0.60678     1.13690
  augment    48.77714    48.77714    46.60810     0.00000     0.00000     0.00000
  Kinetic   557.47594   539.92526   571.36345    -4.13514     0.39853    -0.21912
  Fock        0.00000     0.00000     0.00000     0.00000     0.00000     0.00000
  Total       2.67138     2.67138    -1.80371     0.00000     0.00000     0.00000
  in kB      32.95630    32.95630   -22.25202     0.00000     0.00000     0.00000

 VOLUME and BASIS-vectors are now :
  energy-cutoff  :      400.00
  volume of cell :      129.87
      direct lattice vectors                 reciprocal lattice vectors
     0.000000000  0.000000000  4.199705000    -0.000000000 -0.000000000  0.238111963
     5.560890000  0.000000000  0.000000000     0.179827330 -0.000000000  0.000000000
     0.000000000  5.560890000  0.000000000     0.000000000  0.179827330  0.000000000

[...]

 FORCES acting on ions
    electron-ion (+dipol)            ewald-force                    non-local-force                 convergence-correction
   -.220E-12 0.401E-12 -.120E-06   -.533E-14 -.355E-14 0.205E-14   0.330E-19 0.508E-20 0.235E-19   -.112E-13 0.335E-14 0.277E-14
   0.191E-11 0.242E-06 0.171E+01   -.711E-14 0.000E+00 -.173E+01   -.425E-19 -.416E-19 -.492E-01   -.484E-13 -.172E-13 0.446E-03
   -.148E-13 -.248E-06 -.171E+01   0.213E-13 0.213E-13 0.173E+01   -.627E-20 0.436E-19 0.492E-01   0.454E-13 0.188E-13 -.446E-03
   0.310E-12 0.307E-12 -.379E-08   -.711E-14 -.711E-14 -.617E-14   0.165E-19 0.217E-19 -.607E-20   -.339E-13 0.385E-14 -.149E-13
   0.383E+02 -.383E+02 0.488E-09   -.372E+02 0.372E+02 -.362E-14   -.139E+01 0.139E+01 0.252E-16   0.294E-01 -.294E-01 0.419E-14
   -.383E+02 -.383E+02 0.564E-09   0.372E+02 0.372E+02 -.169E-14   0.139E+01 0.139E+01 0.678E-16   -.294E-01 -.294E-01 -.795E-14
   -.383E+02 0.383E+02 0.488E-09   0.372E+02 -.372E+02 -.618E-15   0.139E+01 -.139E+01 0.238E-17   -.294E-01 0.294E-01 -.911E-14
   0.383E+02 0.383E+02 0.564E-09   -.372E+02 -.372E+02 0.518E-14   -.139E+01 -.139E+01 -.732E-16   0.294E-01 0.294E-01 0.548E-15
   0.228E-11 -.589E-08 -.125E-06   -.142E-13 0.213E-13 -.181E-14   0.222E-15 0.000E+00 0.221E-16   -.278E-13 0.339E-14 -.491E-13

 POSITION                                       TOTAL-FORCE (eV/Angst)
      2.78045      2.78044      2.09985        -0.000000     -0.000000      0.000000
      2.78044      0.00000      2.10901        -0.000000     -0.000000     -0.072404
      0.00000      2.78044      2.09070        -0.000000     -0.000000      0.072404
      2.78045      2.78044      0.00000        -0.000000     -0.000000      0.000000
      1.15819      4.40270      0.00000        -0.283745      0.283745      0.000000
      4.40270      4.40270      0.00000         0.283745      0.283745      0.000000
      4.40270      1.15819      0.00000         0.283745     -0.283745      0.000000
      1.15819      1.15819      0.00000        -0.283745     -0.283745     -0.000000
    total drift:                                0.000000     -0.000000     -0.000000

  FREE ENERGIE OF THE ION-ELECTRON SYSTEM (eV)
  free  energy   TOTEN  =       -42.03852034 eV

  energy  without entropy=      -42.03819158  energy(sigma->0) =      -42.03835596

 Quasi-Newton relaxation of ions (Broydens 2nd method)
  g(Force)  = 0.632E-02   g(Stress)= 0.211E-01

 Reset! Starting new Quasi-Newton update for ions

[...]

 d Force = 0.5761744E-02[ 0.519E-02, 0.634E-02]  d Energy = 0.2656063E-01-0.208E-01
 d Force = 0.8110702E+00[ 0.803E+00, 0.819E+00]  d Ewald  =-0.3183104E+01 0.399E+01

[...]

 retain information from N=  1 steps
 eigenvalues of (default step * inverse Hessian matrix)
  average eigenvalue of G=   9.3429
 eigenvalue spectrum of G is  9.3429

[...]

 eigenvalue-minimisations  :  2110
 total energy-change (2. order) :-0.2110362E-03  (-0.6021957E-03)
 number of electron      50.9999970 magnetization
 augmentation part        7.3355454 magnetization

[...]

 Broyden mixing:
  rms(total) = 0.86734E-02    rms(broyden)= 0.86520E-02
  rms(prec ) = 0.13857E-01
  weight for this iteration     100.00

 eigenvalues of (default mixing * dielectric matrix)
  average eigenvalue GAMMA=   1.1422
  2.2592  0.1445  1.6330  1.6330  0.9513  0.8675  0.5070

[...]

--------------------------------------- Iteration      3(   9)  ---------------------------------------

 eigenvalue-minimisations  :  2360
 total energy-change (2. order) : 0.2965268E-04  (-0.2155095E-04)
 number of electron      50.9999970 magnetization
 augmentation part        7.3110475 magnetization

 Free energy of the ion-electron system (eV)
  alpha Z        PSCENC =       167.40970557
  Ewald energy   TEWEN  =     -2766.15427649
  -Hartree energ DENC   =      -684.56019623
  -exchange      EXHF   =         0.00000000
  -V(xc)+E(xc)   XCENC  =       109.74806927
  PAW double counting   =      4159.26814512    -4131.60319689
  entropy T*S    EENTRO =        -0.00118340
  eigenvalues    EBANDS =      -278.04777455
  atomic energy  EATOM  =      3381.80785421
  Solvation  Ediel_sol  =         0.00000000
  free energy    TOTEN  =       -42.13285339 eV

  energy without entropy =      -42.13166999  energy(sigma->0) =      -42.13226169

 average (electrostatic) potential at core
  the test charge radii are     0.7672  1.1137  1.0103  0.9587
  (the norm of the test charge is              1.0000)
       1 -27.3863       2 -43.0526       3 -43.0526       4 -43.2695       5 -82.9909
       6 -82.9909       7 -82.9909       8 -82.9909

 E-fermi :   6.2721     XC(G=0): -10.4800     alpha+bet :-12.9364

 Fermi energy:         6.2721426511

[...]

 k-point    24 :       0.4286    0.4000    0.4000
  band No.  band energies     occupation
      1     -34.2398      2.00000
      2     -34.2391      2.00000
      3     -15.4606      2.00000
      4     -15.4552      2.00000
      5     -15.3659      2.00000
      6     -15.3542      2.00000
      7     -15.2839      2.00000
      8     -15.2767      2.00000
      9      -6.9751      2.00000
     10      -4.7236      2.00000
     11      -4.6305      2.00000
     12      -3.1293      2.00000
     13      -0.3007      2.00000
     14       1.4202      2.00000
     15       1.4399      2.00000
     16       1.5972      2.00000
     17       1.7804      2.00000
     18       2.3393      2.00000
     19       2.7095      2.00000
     20       3.1640      2.00000
     21       3.3093      2.00000
     22       4.1562      2.00000
     23       4.7105      2.00000
     24       4.9581      2.00000
     25       5.7918      2.00000
     26       6.2670      1.53669
     27       6.4058      0.00000
     28       6.5444      0.00000
     29       7.0624      0.00000
     30       7.5651      0.00000

 soft charge-density along one line, spin component           1
         0         1         2         3         4         5         6         7         8         9
 total charge-density along one line

------------------------ aborting loop because EDIFF is reached ----------------------------------------

[...]

  FORCE on cell =-STRESS in cart. coord.  units (eV):
  Direction    XX          YY          ZZ          XY          YZ          ZX
  Alpha Z   167.40971   167.40971   167.40971
  Ewald    -930.67868  -930.67868  -904.80031    -0.00000     0.00000     0.00000
  Hartree   207.56288   207.56288   269.20711    -0.00000    -0.00000    -0.00000
  E(xc)    -203.76068  -203.76068  -204.71100     0.00000     0.00000    -0.00000
  Local      50.62940    50.62940   -63.72073    -0.00000     0.00000    -0.00000
  n-local   113.21930   116.13814   121.08445     0.64664     0.43510     0.93601
  augment    49.12776    49.12776    46.32536     0.00000     0.00000     0.00000
  Kinetic   552.32072   535.53148   567.52711    -3.99538     0.52057    -0.04928
  Fock        0.00000     0.00000     0.00000     0.00000     0.00000     0.00000
  Total      -1.10479    -1.10479    -1.67830    -0.00000    -0.00000    -0.00000
  in kB     -13.10311   -13.10311   -19.90517    -0.00000    -0.00000    -0.00000

 VOLUME and BASIS-vectors are now :
  energy-cutoff  :      400.00
  volume of cell :      135.09
      direct lattice vectors                 reciprocal lattice vectors
     0.000000000  0.000000000  4.131776681    -0.000000000 -0.000000000  0.242026633
     5.717933866  0.000000000  0.000000000     0.174888347 -0.000000000 -0.000000000
     0.000000000  5.717933866  0.000000000    -0.000000000  0.174888347 -0.000000000

  length of vectors
     4.131776681  5.717933866  5.717933866     0.242026633  0.174888347  0.174888347

 FORCES acting on ions
    electron-ion (+dipol)            ewald-force                    non-local-force                 convergence-correction
   -.198E-12 0.389E-12 -.723E-07   -.178E-14 -.178E-14 -.378E-14   -.299E-19 -.102E-19 -.851E-20   -.108E-14 -.781E-13 -.282E-14
   0.185E-11 0.883E-07 0.565E+00   0.142E-13 -.142E-13 -.570E+00   -.404E-19 -.288E-19 -.184E-01   0.217E-14 0.303E-12 -.257E-03
   -.365E-13 -.907E-07 -.565E+00   0.213E-13 -.711E-14 0.570E+00   0.378E-19 0.724E-20 0.184E-01   0.170E-13 -.418E-12 0.257E-03
   0.343E-12 0.344E-12 0.687E-10   -.355E-13 0.000E+00 0.444E-14   -.581E-20 -.497E-21 0.208E-20   0.131E-14 -.219E-12 0.695E-14
   0.329E+02 -.329E+02 -.226E-08   -.318E+02 0.318E+02 -.115E-13   -.113E+01 0.113E+01 0.279E-17   0.184E-01 -.184E-01 0.964E-14
   -.329E+02 -.329E+02 0.110E-08   0.318E+02 0.318E+02 -.404E-14   0.113E+01 0.113E+01 0.101E-15   -.184E-01 -.184E-01 0.819E-14
   -.329E+02 0.329E+02 -.226E-08   0.318E+02 -.318E+02 -.343E-14   0.113E+01 -.113E+01 -.394E-17   -.184E-01 0.184E-01 0.548E-14
   0.329E+02 0.329E+02 0.110E-08   -.318E+02 -.318E+02 -.362E-14   -.113E+01 -.113E+01 -.984E-16   0.184E-01 0.184E-01 0.524E-14
   0.184E-11 -.241E-08 -.755E-07   -.284E-13 -.711E-14 -.385E-14   0.000E+00 0.000E+00 0.146E-17   0.224E-13 -.249E-12 -.947E-13

 POSITION                                       TOTAL-FORCE (eV/Angst)
      2.85897      2.85897      2.06589         0.000000      0.000000     -0.000000
      2.85897      0.00000      2.06917         0.000000     -0.000000     -0.023391
      0.00000      2.85897      2.06261         0.000000      0.000000      0.023391
      2.85897      2.85897      0.00000         0.000000      0.000000     -0.000000
      1.16972      4.54821      0.00000         0.032863     -0.032863     -0.000000
      4.54821      4.54821      0.00000        -0.032863     -0.032863     -0.000000
      4.54821      1.16972      0.00000        -0.032863      0.032863     -0.000000
      1.16972      1.16972      0.00000         0.032863      0.032863      0.000000
    total drift:                                0.000000     -0.000000     -0.000000

  FREE ENERGIE OF THE ION-ELECTRON SYSTEM (eV)
  free  energy   TOTEN  =       -42.13285339 eV

  energy  without entropy=      -42.13166999  energy(sigma->0) =      -42.13226169

 d Force = 0.1507542E-01[-0.459E-02, 0.347E-01]  d Energy = 0.6777242E-01-0.527E-01
 d Force = 0.5020640E+01[ 0.467E+01, 0.537E+01]  d Ewald  =-0.2806197E+02 0.331E+02

 Quasi-Newton relaxation of ions (Broydens 2nd method)
  g(Force)  = 0.939E-04   g(Stress)= 0.634E-02

 retain information from N=  1 steps
 eigenvalues of (default step * inverse Hessian matrix)
  average eigenvalue of G=   5.5164
 eigenvalue spectrum of G is  5.5164

 total charge

# of ion       s       p       d       tot
    1        0.801   0.801   0.000   1.602
    2        2.034   5.854   0.341   8.228
    3        2.034   5.854   0.341   8.228
    4        0.401   0.549   6.444   7.394
    5        1.068   1.385   0.000   2.453
    6        1.068   1.385   0.000   2.453
    7        1.068   1.385   0.000   2.453
    8        1.068   1.385   0.000   2.453
tot          9.543  18.596   7.125  35.264